30
1188
1188
77 80 65 80
94 87 90 87
71 68 90 68
63 72 77 72
96 66 95 66
82 77 84 77
85 99 70 99
75 85 94 85
72 70 66 70
91 93 92 93
99 98 74 98
63 72 97 72
84 100 60 100
87 89 60 89
79 67 65 67
94 86 97 86
90 91 93 91
60 79 60 79
69 71 69 71
62 99 74 99
60 69 85 69
74 83 66 83
62 76 100 76
76 94 68 94
82 61 92 61
88 88 84 88
100 62 63 62
96 77 79 77
83 64 72 64
89 75 95 75